#TITLE:ILLIT (아일릿) 'NOT CUTE ANYMORE’ Official MV;
#OFFSET:-9.381;
#BPMS:0.000=99.384;

#NOTES:
     dance-single:
     ITGMaker:
     Beginner:
     2:
     0.8,0.8,0.8,0.8,0.8:
0001
0000
0000
0000
0100
0000
0000
0000
0010
0000
0000
0000
0100
0000
0000
0000,
0001
0000
0000
0000
1000
0000
0000
0000
0001
0000
0000
0000
1000
0000
0000
0000,
0001
0000
0000
0000
0100
0000
0000
0000
0001
0000
0000
0000
1000
0000
0000
0000,
0001
0000
0000
0000
1000
0000
0000
0000
0001
0000
0000
0000
0100
0000
0000
0000,
0010
0000
0000
0000
0100
0000
0000
0000
0010
0000
0000
0000
1000
0000
0000
0000,
0010
0000
0000
0000
1000
0000
0000
0000
0010
0000
0000
0000
0100
0000
0000
0000,
0001
0000
0000
0000
0100
0000
0000
0000
0001
0000
0000
0000
0100
0000
0000
0000,
0001
0000
0000
0000
0100
0000
0000
0000
0010
0000
0000
0000
1000
0000
0000
0000,
0010
0000
0000
0000
0100
0000
0000
0000
0010
0000
0000
0000
1000
0000
0000
0000,
0010
0000
0000
0000
1000
0000
0000
0000
0010
0000
0000
0000
1000
0000
0000
0000,
0001
0000
0000
0000
1000
0000
0000
0000
0010
0000
0000
0000
0100
0000
0000
0000,
0010
0000
0000
0000
0100
0000
0000
0000
0001
0000
0000
0000
1000
0000
0000
0000,
0001
0000
0000
0000
1000
0000
0000
0000
0001
0000
0000
0000
1000
0000
0000
0000,
0001
0000
0000
0000
0100
0000
0000
0000
0010
0000
0000
0000
1000
0000
0000
0000,
0010
0000
0000
0000
1000
0000
0000
0000
0010
0000
0000
0000
1000
0000
0000
0000,
0001
0000
0000
0000
1000
0000
0000
0000
0010
0000
0000
0000
1000
0000
0000
0000,
0001
0000
0000
0000
1000
0000
0000
0000
0010
0000
0000
0000
0100
0000
0000
0000,
0001
0000
0000
0000
0100
0000
0000
0000
0001
0000
0000
0000
0100
0000
0000
0000,
0001
0000
0000
0000
1000
0000
0000
0000
0010
0000
0000
0000
0100
0000
0000
0000,
0010
0000
0000
0000
0100
0000
0000
0000
0010
0000
0000
0000
0100
0000
0000
0000,
0010
0000
0000
0000
1000
0000
0000
0000
0001
0000
0000
0000
0100
0000
0000
0000,
0001
0000
0000
0000
1000
0000
0000
0000
0010
0000
0000
0000
1000
0000
0000
0000,
0010
0000
0000
0000
1000
0000
0000
0000
0001
0000
0000
0000
0100
0000
0000
0000,
0010
0000
0000
0000
1000
0000
0000
0000
0010
0000
0000
0000
0100
0000
0000
0000,
0010
0000
0000
0000
1000
0000
0000
0000
0010
0000
0000
0000
0100
0000
0000
0000,
0001
0000
0000
0000
0000
0000
0000
0000
0000
0000
0000
0000
0000
0000
0000
0000,
0000
0000
0000
0000
0000
0000
0000
0000
0000
0000
0000
0000
0000
0000
0000
0000,
0000
0000
0000
0000
0100
0000
0000
0000
0010
0000
0000
0000
0100
0000
0000
0000,
0010
0000
0000
0000
0100
0000
0000
0000
0001
0000
0000
0000
0100
0000
0000
0000,
0010
0000
0000
0000
1000
0000
0000
0000
0010
0000
0000
0000
1000
0000
0000
0000,
0010
0000
0000
0000
0100
0000
0000
0000
0001
0000
0000
0000
1000
0000
0000
0000,
0010
0000
0000
0000
0100
0000
0000
0000
0010
0000
0000
0000
0100
0000
0000
0000,
0001
0000
0000
0000
0100
0000
0000
0000
0001
0000
0000
0000
0100
0000
0000
0000,
0010
0000
0000
0000
1000
0000
0000
0000
0001
0000
0000
0000
1000
0000
0000
0000,
0010
0000
0000
0000
0100
0000
0000
0000
0001
0000
0000
0000
0100
0000
0000
0000,
0010
0000
0000
0000
1000
0000
0000
0000
0001
0000
0000
0000
0100
0000
0000
0000,
0010
0000
0000
0000
1000
0000
0000
0000
0010
0000
0000
0000
1000
0000
0000
0000,
0010
0000
0000
0000
1000
0000
0000
0000
0010
0000
0000
0000
1000
0000
0000
0000,
0010
0000
0000
0000
1000
0000
0000
0000
0010
0000
0000
0000
0100
0000
0000
0000,
0001
0000
0000
0000
1000
0000
0000
0000
0001
0000
0000
0000
0100
0000
0000
0000,
0010
0000
0000
0000
0100
0000
0000
0000
0010
0000
0000
0000
0100
0000
0000
0000,
0001
0000
0000
0000
1000
0000
0000
0000
0001
0000
0000
0000
0100
0000
0000
0000,
0001
0000
0000
0000
1000
0000
0000
0000
0001
0000
0000
0000
1000
0000
0000
0000,
0001
0000
0000
0000
1000
0000
0000
0000
0001
0000
0000
0000
1000
0000
0000
0000,
0010
0000
0000
0000
1000
0000
0000
0000
0001
0000
0000
0000
1000
0000
0000
0000,
0010
0000
0000
0000
0100
0000
0000
0000
0001
0000
0000
0000
1000
0000
0000
0000,
0001
0000
0000
0000
1000
0000
0000
0000
0001
0000
0000
0000
0100
0000
0000
0000,
0010
0000
0000
0000
0100
0000
0000
0000
0010
0000
0000
0000
0100
0000
0000
0000,
0010
0000
0000
0000
0100
0000
0000
0000
0010
0000
0000
0000
0100
0000
0000
0000,
0010
0000
0000
0000
0100
0000
0000
0000
0001
0000
0000
0000
0100
0000
0000
0000,
0010
0000
0000
0000
1000
0000
0000
0000
0001
0000
0000
0000
1000
0000
0000
0000,
0001
0000
0000
0000
1000
0000
0000
0000
0001
0000
0000
0000
0100
0000
0000
0000,
0001
0000
0000
0000
1000
0000
0000
0000
0000
0000
0000
0000
0001
0000
0000
0000,
0100
0000
0000
0000
0010
0000
0000
0000
0100
0000
0000
0000
0010
0000
0000
0000,
1000
0000
0000
0000
0001
0000
0000
0000
1000
0000
0000
0000
0010
0000
0000
0000,
0100
0000
0000
0000
0010
0000
0000
0000
0000
0000
0000
0000
0000
0000
0000
0000
;